p cnf 17 21
-1 16 0 
-2 16 0 
-3 -4 16 0 
-5 -6 16 0 
-7 16 0 
-8 17 0 
-5 16 0 
-9 16 0 
-10 16 0 
-8 16 0 
-11 16 0 
-12 16 0 
-12 17 0 
-13 14 16 0 
-14 13 16 0 
-4 16 0 
-9 -10 16 0 
-15 -10 16 0 
-2 -10 16 0 
-1 -6 16 0 
-15 16 0 
